HFSDDW
15	12	4
0	43	1	97	2	46	3	33
0	22	1	69	2	63	3	41
0	48	1	39	2	33	3	99
0	18	1	81	2	42	3	97
0	23	1	66	2	57	3	51
0	88	1	8	2	76	3	55
0	97	1	61	2	56	3	58
0	72	1	62	2	91	3	82
0	66	1	77	2	6	3	1
0	7	1	8	2	87	3	76
0	35	1	71	2	23	3	60
0	77	1	51	2	69	3	94
0	46	1	89	2	38	3	27
0	47	1	78	2	5	3	36
0	21	1	91	2	36	3	61
LBCmax: 408
RELDUE
-1	133	2	8
-1	126	2	7
-1	179	5	9
-1	193	6	2
-1	161	8	3
-1	163	6	4
-1	149	8	7
-1	155	7	8
-1	184	2	7
-1	156	3	6
-1	197	3	1
-1	134	4	2
-1	187	3	2
-1	189	3	2
-1	134	1	9
DDW
126	140
113	139
154	204
168	218
132	190
145	181
148	150
150	160
149	219
134	178
175	219
109	159
153	221
164	214
111	157
